************************************************************************
file with basedata            : j9010_.bas
initial value random generator: 1238625675
************************************************************************
projects                      :  1
jobs (incl. supersource/sink ):  92
horizon                       :  541
RESOURCES
  - renewable                 :  4   R
  - nonrenewable              :  0   N
  - doubly constrained        :  0   D
************************************************************************
PROJECT INFORMATION:
pronr.  #jobs rel.date duedate tardcost  MPM-Time
    1     90      0       94       21       94
************************************************************************
PRECEDENCE RELATIONS:
jobnr.    #modes  #successors   successors
   1        1          3           2   3   4
   2        1          3           5  16  24
   3        1          3           6   7   9
   4        1          3          10  17  21
   5        1          3          27  32  84
   6        1          2          11  63
   7        1          3           8  19  23
   8        1          1          80
   9        1          3          13  15  35
  10        1          1          12
  11        1          3          20  31  64
  12        1          3          14  22  25
  13        1          2          59  91
  14        1          1          26
  15        1          1          68
  16        1          3          37  61  69
  17        1          3          18  34  77
  18        1          1          35
  19        1          2          28  43
  20        1          3          29  45  47
  21        1          2          33  41
  22        1          1          76
  23        1          1          32
  24        1          1          30
  25        1          3          49  53  83
  26        1          1          54
  27        1          1          70
  28        1          2          39  52
  29        1          3          42  55  66
  30        1          1          53
  31        1          2          50  88
  32        1          2          58  73
  33        1          3          36  46  57
  34        1          2          37  38
  35        1          1          71
  36        1          1          85
  37        1          2          40  68
  38        1          1          65
  39        1          1          47
  40        1          1          87
  41        1          2          48  78
  42        1          1          44
  43        1          1          74
  44        1          1          50
  45        1          1          61
  46        1          1          56
  47        1          2          60  62
  48        1          1          63
  49        1          1          51
  50        1          1          75
  51        1          1          74
  52        1          1          53
  53        1          1          77
  54        1          1          72
  55        1          1          58
  56        1          1          82
  57        1          1          89
  58        1          3          65  72  90
  59        1          2          74  81
  60        1          1          91
  61        1          1          62
  62        1          1          65
  63        1          2          75  82
  64        1          1          67
  65        1          1          68
  66        1          1          77
  67        1          1          70
  68        1          1          78
  69        1          1          76
  70        1          1          79
  71        1          1          82
  72        1          1          79
  73        1          1          85
  74        1          1          88
  75        1          2          79  86
  76        1          1          87
  77        1          1          88
  78        1          1          81
  79        1          1          91
  80        1          2          81  83
  81        1          1          85
  82        1          1          84
  83        1          1          86
  84        1          1          86
  85        1          1          87
  86        1          1          90
  87        1          1          89
  88        1          1          90
  89        1          1          92
  90        1          1          92
  91        1          1          92
  92        1          0        
************************************************************************
REQUESTS/DURATIONS:
jobnr. mode duration  R 1  R 2  R 3  R 4
------------------------------------------------------------------------
  1      1     0       0    0    0    0
  2      1     2       1    2    3    0
  3      1     2      10   10    5    0
  4      1     5       8    2    1    0
  5      1     8       0    8    0    3
  6      1     6       7    0    4    2
  7      1     1       6    9    1    0
  8      1     6       5    8    5    5
  9      1     5       1    7    0    0
 10      1     4       6    0    0    0
 11      1     9       3    8    2    9
 12      1     1       0    0    7    0
 13      1     4       6    0    5    0
 14      1     4       8    2    2    9
 15      1     4       4    0    2    5
 16      1     9      10    6    9    0
 17      1     8       3    1    5    8
 18      1     7       8    3    0    5
 19      1     5       0    9    4    5
 20      1     7       7    0    3    6
 21      1     9       2    3    0   10
 22      1     4      10    1    5    9
 23      1    10       0    0    5   10
 24      1     9       1    1    2   10
 25      1     7       0    5    1    6
 26      1     6       0    0    8    7
 27      1     9       0    7    3    0
 28      1     1       7    2    9    4
 29      1     1       0    1   10    8
 30      1     1       5    1    0    5
 31      1     9       7   10    0    3
 32      1     2       3    8    4    3
 33      1     1       0    6   10    2
 34      1     4       2    4    0    9
 35      1    10       0   10    7    4
 36      1     5       5    0    1    8
 37      1     2       1    0    1    4
 38      1     7       0    7    1    8
 39      1    10       1    0    8    8
 40      1     2       9    2    0    8
 41      1    10       5   10    4    0
 42      1     3       0   10    3    5
 43      1    10       9    9    6    2
 44      1     9       1    6    6    6
 45      1     9       5    2    1    1
 46      1    10       0    0    9    3
 47      1     9       2    4    2   10
 48      1     2       0    9    8    5
 49      1     5       3    0    8    5
 50      1     7       5    8    4    2
 51      1    10       9    2    5    1
 52      1     9       0    4    0    2
 53      1    10       8    3    2    7
 54      1     9       5    5    2    4
 55      1     2       3    0    0    1
 56      1     5       3    0    8    0
 57      1     7       3    4    0    4
 58      1     3      10    8    2    3
 59      1     9       4    4    9    8
 60      1    10       0    1    0    3
 61      1     4       4    0    7    0
 62      1     6       0    4    0    5
 63      1     8       1    0   10    7
 64      1     1       0    9    8    9
 65      1    10       7    6    0    4
 66      1     5       0    6    0    0
 67      1     9       4    2    0    6
 68      1    10       5    1    0    9
 69      1     6       3    6    0    7
 70      1     7       5   10    0    5
 71      1     9       3    9    1   10
 72      1     7       0    1    3    3
 73      1     5       5   10    7    0
 74      1     5       2    6    6    7
 75      1     9       0    0    0    4
 76      1     7       3    7    4    8
 77      1     3       4   10    0    9
 78      1     6       6    6    0    8
 79      1     7       0    0    5    0
 80      1     1       5    4   10    6
 81      1     4       9    4    0    6
 82      1     8      10    9    3    0
 83      1     7       4    0    3    7
 84      1     6       6    4    3    1
 85      1    10       0    8    5    6
 86      1     2       4    9    3    0
 87      1     6       0    3    9    3
 88      1     2       7    1    0    8
 89      1     5       9    1    5    6
 90      1    10       0    9    5    6
 91      1     2       8    0    1   10
 92      1     0       0    0    0    0
************************************************************************
RESOURCEAVAILABILITIES:
  R 1  R 2  R 3  R 4
   43   47   47   54
************************************************************************
